T=12;
V=52;
graph=[{2,7},{1,3,8},{2,9},{5,12},{4,6,13},{5,14},{1,8,15},{2,7,9,16},{3,8,10,17},{9,11},{10,12,18},{4,11,13,19},{5,12,14,20},{6,13,21},{7,16,22},{8,15,17,23},{9,16,24},{11,19,26},{12,18,20},{13,19,21,27},{14,20},{15,23,28},{16,22,24,29},{17,23,25,30},{24,26,31},{18,25,32},{20},{22,29},{23,28,30,34},{24,29,31,35},{25,30,32,36},{26,31,33,37},{32},{29,35},{30,34,36,41},{31,35,37,42},{32,36},{39,44},{38,45},{46},{35,42,48},{36,41},{44,50},{38,43,45,51},{39,44,52},{40,47},{46,48},{41,47},{50},{43,49,51},{44,50,52},{45,51}];
A=20;
start=[15,23,16,6,18,50,36,10,7,46,40,13,32,44,8,30,28,12,41,20];
end=[2,22,18,28,13,51,1,17,15,7,40,9,24,45,14,47,36,27,29,6];
distances=[|0,1,2,7,8,9,1,2,3,4,5,6,7,8,2,3,4,6,7,8,9,3,4,5,6,7,9,4,5,6,7,8,9,6,7,8,9,0,0,12,8,9,0,0,0,11,10,9,0,0,0,0
|1,0,1,6,7,8,2,1,2,3,4,5,6,7,3,2,3,5,6,7,8,4,3,4,5,6,8,5,4,5,6,7,8,5,6,7,8,0,0,11,7,8,0,0,0,10,9,8,0,0,0,0
|2,1,0,5,6,7,3,2,1,2,3,4,5,6,4,3,2,4,5,6,7,5,4,3,4,5,7,6,5,4,5,6,7,6,5,6,7,0,0,10,6,7,0,0,0,9,8,7,0,0,0,0
|7,6,5,0,1,2,6,5,4,3,2,1,2,3,7,6,5,3,2,3,4,8,7,6,5,4,4,9,8,7,6,5,6,9,8,7,6,0,0,13,9,8,0,0,0,12,11,10,0,0,0,0
|8,7,6,1,0,1,7,6,5,4,3,2,1,2,8,7,6,4,3,2,3,9,8,7,6,5,3,10,9,8,7,6,7,10,9,8,7,0,0,14,10,9,0,0,0,13,12,11,0,0,0,0
|9,8,7,2,1,0,8,7,6,5,4,3,2,1,9,8,7,5,4,3,2,10,9,8,7,6,4,11,10,9,8,7,8,11,10,9,8,0,0,15,11,10,0,0,0,14,13,12,0,0,0,0
|1,2,3,6,7,8,0,1,2,3,4,5,6,7,1,2,3,5,6,7,8,2,3,4,5,6,8,3,4,5,6,7,8,5,6,7,8,0,0,11,7,8,0,0,0,10,9,8,0,0,0,0
|2,1,2,5,6,7,1,0,1,2,3,4,5,6,2,1,2,4,5,6,7,3,2,3,4,5,7,4,3,4,5,6,7,4,5,6,7,0,0,10,6,7,0,0,0,9,8,7,0,0,0,0
|3,2,1,4,5,6,2,1,0,1,2,3,4,5,3,2,1,3,4,5,6,4,3,2,3,4,6,5,4,3,4,5,6,5,4,5,6,0,0,9,5,6,0,0,0,8,7,6,0,0,0,0
|4,3,2,3,4,5,3,2,1,0,1,2,3,4,4,3,2,2,3,4,5,5,4,3,4,3,5,6,5,4,5,4,5,6,5,6,5,0,0,10,6,7,0,0,0,9,8,7,0,0,0,0
|5,4,3,2,3,4,4,3,2,1,0,1,2,3,5,4,3,1,2,3,4,6,5,4,3,2,4,7,6,5,4,3,4,7,6,5,4,0,0,11,7,6,0,0,0,10,9,8,0,0,0,0
|6,5,4,1,2,3,5,4,3,2,1,0,1,2,6,5,4,2,1,2,3,7,6,5,4,3,3,8,7,6,5,4,5,8,7,6,5,0,0,12,8,7,0,0,0,11,10,9,0,0,0,0
|7,6,5,2,1,2,6,5,4,3,2,1,0,1,7,6,5,3,2,1,2,8,7,6,5,4,2,9,8,7,6,5,6,9,8,7,6,0,0,13,9,8,0,0,0,12,11,10,0,0,0,0
|8,7,6,3,2,1,7,6,5,4,3,2,1,0,8,7,6,4,3,2,1,9,8,7,6,5,3,10,9,8,7,6,7,10,9,8,7,0,0,14,10,9,0,0,0,13,12,11,0,0,0,0
|2,3,4,7,8,9,1,2,3,4,5,6,7,8,0,1,2,6,7,8,9,1,2,3,4,5,9,2,3,4,5,6,7,4,5,6,7,0,0,10,6,7,0,0,0,9,8,7,0,0,0,0
|3,2,3,6,7,8,2,1,2,3,4,5,6,7,1,0,1,5,6,7,8,2,1,2,3,4,8,3,2,3,4,5,6,3,4,5,6,0,0,9,5,6,0,0,0,8,7,6,0,0,0,0
|4,3,2,5,6,7,3,2,1,2,3,4,5,6,2,1,0,4,5,6,7,3,2,1,2,3,7,4,3,2,3,4,5,4,3,4,5,0,0,8,4,5,0,0,0,7,6,5,0,0,0,0
|6,5,4,3,4,5,5,4,3,2,1,2,3,4,6,5,4,0,1,2,3,5,4,3,2,1,3,6,5,4,3,2,3,6,5,4,3,0,0,10,6,5,0,0,0,9,8,7,0,0,0,0
|7,6,5,2,3,4,6,5,4,3,2,1,2,3,7,6,5,1,0,1,2,6,5,4,3,2,2,7,6,5,4,3,4,7,6,5,4,0,0,11,7,6,0,0,0,10,9,8,0,0,0,0
|8,7,6,3,2,3,7,6,5,4,3,2,1,2,8,7,6,2,1,0,1,7,6,5,4,3,1,8,7,6,5,4,5,8,7,6,5,0,0,12,8,7,0,0,0,11,10,9,0,0,0,0
|9,8,7,4,3,2,8,7,6,5,4,3,2,1,9,8,7,3,2,1,0,8,7,6,5,4,2,9,8,7,6,5,6,9,8,7,6,0,0,13,9,8,0,0,0,12,11,10,0,0,0,0
|3,4,5,8,9,10,2,3,4,5,6,7,8,9,1,2,3,5,6,7,8,0,1,2,3,4,8,1,2,3,4,5,6,3,4,5,6,0,0,9,5,6,0,0,0,8,7,6,0,0,0,0
|4,3,4,7,8,9,3,2,3,4,5,6,7,8,2,1,2,4,5,6,7,1,0,1,2,3,7,2,1,2,3,4,5,2,3,4,5,0,0,8,4,5,0,0,0,7,6,5,0,0,0,0
|5,4,3,6,7,8,4,3,2,3,4,5,6,7,3,2,1,3,4,5,6,2,1,0,1,2,6,3,2,1,2,3,4,3,2,3,4,0,0,7,3,4,0,0,0,6,5,4,0,0,0,0
|6,5,4,5,6,7,5,4,3,4,3,4,5,6,4,3,2,2,3,4,5,3,2,1,0,1,5,4,3,2,1,2,3,4,3,2,3,0,0,8,4,3,0,0,0,7,6,5,0,0,0,0
|7,6,5,4,5,6,6,5,4,3,2,3,4,5,5,4,3,1,2,3,4,4,3,2,1,0,4,5,4,3,2,1,2,5,4,3,2,0,0,9,5,4,0,0,0,8,7,6,0,0,0,0
|9,8,7,4,3,4,8,7,6,5,4,3,2,3,9,8,7,3,2,1,2,8,7,6,5,4,0,9,8,7,6,5,6,9,8,7,6,0,0,13,9,8,0,0,0,12,11,10,0,0,0,0
|4,5,6,9,10,11,3,4,5,6,7,8,9,10,2,3,4,6,7,8,9,1,2,3,4,5,9,0,1,2,3,4,5,2,3,4,5,0,0,8,4,5,0,0,0,7,6,5,0,0,0,0
|5,4,5,8,9,10,4,3,4,5,6,7,8,9,3,2,3,5,6,7,8,2,1,2,3,4,8,1,0,1,2,3,4,1,2,3,4,0,0,7,3,4,0,0,0,6,5,4,0,0,0,0
|6,5,4,7,8,9,5,4,3,4,5,6,7,8,4,3,2,4,5,6,7,3,2,1,2,3,7,2,1,0,1,2,3,2,1,2,3,0,0,6,2,3,0,0,0,5,4,3,0,0,0,0
|7,6,5,6,7,8,6,5,4,5,4,5,6,7,5,4,3,3,4,5,6,4,3,2,1,2,6,3,2,1,0,1,2,3,2,1,2,0,0,7,3,2,0,0,0,6,5,4,0,0,0,0
|8,7,6,5,6,7,7,6,5,4,3,4,5,6,6,5,4,2,3,4,5,5,4,3,2,1,5,4,3,2,1,0,1,4,3,2,1,0,0,8,4,3,0,0,0,7,6,5,0,0,0,0
|9,8,7,6,7,8,8,7,6,5,4,5,6,7,7,6,5,3,4,5,6,6,5,4,3,2,6,5,4,3,2,1,0,5,4,3,2,0,0,9,5,4,0,0,0,8,7,6,0,0,0,0
|6,5,6,9,10,11,5,4,5,6,7,8,9,10,4,3,4,6,7,8,9,3,2,3,4,5,9,2,1,2,3,4,5,0,1,2,3,0,0,6,2,3,0,0,0,5,4,3,0,0,0,0
|7,6,5,8,9,10,6,5,4,5,6,7,8,9,5,4,3,5,6,7,8,4,3,2,3,4,8,3,2,1,2,3,4,1,0,1,2,0,0,5,1,2,0,0,0,4,3,2,0,0,0,0
|8,7,6,7,8,9,7,6,5,6,5,6,7,8,6,5,4,4,5,6,7,5,4,3,2,3,7,4,3,2,1,2,3,2,1,0,1,0,0,6,2,1,0,0,0,5,4,3,0,0,0,0
|9,8,7,6,7,8,8,7,6,5,4,5,6,7,7,6,5,3,4,5,6,6,5,4,3,2,6,5,4,3,2,1,2,3,2,1,0,0,0,7,3,2,0,0,0,6,5,4,0,0,0,0
|0,0,0,0,0,0,0,0,0,0,0,0,0,0,0,0,0,0,0,0,0,0,0,0,0,0,0,0,0,0,0,0,0,0,0,0,0,0,1,0,0,0,2,1,2,0,0,0,4,3,2,3
|0,0,0,0,0,0,0,0,0,0,0,0,0,0,0,0,0,0,0,0,0,0,0,0,0,0,0,0,0,0,0,0,0,0,0,0,0,1,0,0,0,0,3,2,1,0,0,0,5,4,3,2
|12,11,10,13,14,15,11,10,9,10,11,12,13,14,10,9,8,10,11,12,13,9,8,7,8,9,13,8,7,6,7,8,9,6,5,6,7,0,0,0,4,5,0,0,0,1,2,3,0,0,0,0
|8,7,6,9,10,11,7,6,5,6,7,8,9,10,6,5,4,6,7,8,9,5,4,3,4,5,9,4,3,2,3,4,5,2,1,2,3,0,0,4,0,1,0,0,0,3,2,1,0,0,0,0
|9,8,7,8,9,10,8,7,6,7,6,7,8,9,7,6,5,5,6,7,8,6,5,4,3,4,8,5,4,3,2,3,4,3,2,1,2,0,0,5,1,0,0,0,0,4,3,2,0,0,0,0
|0,0,0,0,0,0,0,0,0,0,0,0,0,0,0,0,0,0,0,0,0,0,0,0,0,0,0,0,0,0,0,0,0,0,0,0,0,2,3,0,0,0,0,1,2,0,0,0,2,1,2,3
|0,0,0,0,0,0,0,0,0,0,0,0,0,0,0,0,0,0,0,0,0,0,0,0,0,0,0,0,0,0,0,0,0,0,0,0,0,1,2,0,0,0,1,0,1,0,0,0,3,2,1,2
|0,0,0,0,0,0,0,0,0,0,0,0,0,0,0,0,0,0,0,0,0,0,0,0,0,0,0,0,0,0,0,0,0,0,0,0,0,2,1,0,0,0,2,1,0,0,0,0,4,3,2,1
|11,10,9,12,13,14,10,9,8,9,10,11,12,13,9,8,7,9,10,11,12,8,7,6,7,8,12,7,6,5,6,7,8,5,4,5,6,0,0,1,3,4,0,0,0,0,1,2,0,0,0,0
|10,9,8,11,12,13,9,8,7,8,9,10,11,12,8,7,6,8,9,10,11,7,6,5,6,7,11,6,5,4,5,6,7,4,3,4,5,0,0,2,2,3,0,0,0,1,0,1,0,0,0,0
|9,8,7,10,11,12,8,7,6,7,8,9,10,11,7,6,5,7,8,9,10,6,5,4,5,6,10,5,4,3,4,5,6,3,2,3,4,0,0,3,1,2,0,0,0,2,1,0,0,0,0,0
|0,0,0,0,0,0,0,0,0,0,0,0,0,0,0,0,0,0,0,0,0,0,0,0,0,0,0,0,0,0,0,0,0,0,0,0,0,4,5,0,0,0,2,3,4,0,0,0,0,1,2,3
|0,0,0,0,0,0,0,0,0,0,0,0,0,0,0,0,0,0,0,0,0,0,0,0,0,0,0,0,0,0,0,0,0,0,0,0,0,3,4,0,0,0,1,2,3,0,0,0,1,0,1,2
|0,0,0,0,0,0,0,0,0,0,0,0,0,0,0,0,0,0,0,0,0,0,0,0,0,0,0,0,0,0,0,0,0,0,0,0,0,2,3,0,0,0,2,1,2,0,0,0,2,1,0,1
|0,0,0,0,0,0,0,0,0,0,0,0,0,0,0,0,0,0,0,0,0,0,0,0,0,0,0,0,0,0,0,0,0,0,0,0,0,3,2,0,0,0,3,2,1,0,0,0,3,2,1,0|];
